
  32    4
  10   10   10   10

   0   0   0   0   0   1 2 
   6   1   0   1   1   1 3 
   8   6   0   4   3   1 4 
   8   4   1   4   0   1 5 
   5   4   7   3   0   2 19 6 
   8   0   3   9   3   1 7 
   4   4   3   2   0   1 8 
   2   5   4   0   1   1 9 
  10   0   4   4   7   2 12 10 
   5   4   7   0   3   1 11 
   4   3   4   3   0   3 20 15 13 
   6   6   0   4   3   2 20 16 
   5   3   2   7   0   1 14 
   8   5   5   0   3   1 16 
   7   3   4   3   0   1 16 
   8   1   0   4   2   1 17 
   1   3   5   5   0   1 18 
   8   2   0   1   4   2 25 21 
   6   2   6   0   5   2 25 22 
   2   6   6   0   6   2 25 23 
   6   0   5   4   5   1 22 
   4   6   2   0   3   1 23 
   5   5   6   8   0   1 24 
   5   3   5   0   4   1 26 
   2   5   3   3   0   1 26 
   7   4   2   0   5   1 27 
   9   6   0   3   4   2 31 28 
   9   3   3   5   0   1 29 
   8   6   3   0   7   1 30 
   6   4   0   5   6   1 32
   7   0   2   2   5   1 32
   0   0   0   0   0   0 
